(set-info :Origin "This instance was generated by: BanditFuzz-- an RL fuzzer for SMT solvers" )
(set-info :Author "Joe Scott, Fed Mora, Vijay Ganesh" )
(set-info :Contact "Joe Scott, joseph.scott@uwaterloo.ca")
(set-logic QF_BV)
(declare-const bool_0 Bool)
(declare-const bool_1 Bool)
(declare-const bool_2 Bool)
(declare-const bool_3 Bool)
(declare-const bool_4 Bool)
(declare-const bv_0 (_ BitVec 32))
(declare-const bv_1 (_ BitVec 32))
(declare-const bv_2 (_ BitVec 32))
(declare-const bv_3 (_ BitVec 32))
(declare-const bv_4 (_ BitVec 32))
(assert (bvsle (bvadd (bvmul #x58102ec1  #x588c1b36 ) (bvsdiv bv_4 #x08a5f701 )) (bvshl (bvsdiv bv_4 bv_0) (bvmul bv_0 bv_3))))
(assert (or (=> (bvule bv_0 bv_4) (bvsge #x115ad484  #x181255ac )) (bvuge (bvxor bv_2 #x53e9b2b5 ) (bvsdiv #xb2fefd7d  #x154fd1e2 ))))
(assert (or (bvslt (bvadd #x53453fcc  bv_3) (bvsmod bv_0 #xb057174e )) (xor (bvsgt bv_0 #x4d9e5682 ) (=> true true))))
(assert (bvsle (bvand (bvxnor #x6c38d217  #x47775399 ) (bvshl #xc736d909  #x61ea1a15 )) (bvsdiv (bvxor bv_2 #x79e25e10 ) (bvxor #x424cfbc0  bv_4))))
(assert (=> (bvslt (bvashr bv_1 #x684455e9 ) (bvsub bv_2 #xffbe689b )) (bvsle (bvsub #x4f892be6  bv_4) (bvnand #x1ce16a2d  bv_1))))
(check-sat)
(exit)
